PARAMETER_FILE = even/even_complete_graph_new/par/random101.par
PROBLEM_FILE = even/even_complete_graph_new/mat/random101.tsp
Successes/Runs = 0/10
Cost.min = 734, Cost.avg = 734.00, Cost.max = 734
Gap.min = 0.0000%, Gap.avg = 0.0000%, Gap.max = 0.0000%
Trials.min = 1000, Trials.avg = 1000.0, Trials.max = 1000
Time.min = 0.36 sec., Time.avg = 0.42 sec., Time.max = 0.51 sec.
Time.total = 4.29 sec.
请按任意键继续. . . 
